letting n =  10
letting blocks =  [[1, 2], [1, 4], [1, 6], [1, 8], [1, 9], [1, 10], [2, 1], [2, 2], [2, 4], [2, 7], [2, 9], [2, 10], [3, 3], [3, 4], [3, 5], [3, 6], [3, 9], [3, 10], [4, 1], [4, 2], [4, 4], [4, 6], [4, 8], [4, 10], [5, 1], [5, 3], [5, 7], [5, 8], [5, 10], [6, 1], [6, 3], [6, 5], [6, 6], [6, 7], [6, 9], [7, 2], [7, 4], [7, 5], [7, 6], [8, 1], [8, 5], [8, 7], [8, 8], [8, 9], [9, 2], [9, 5], [9, 8], [9, 10], [10, 1], [10, 2], [10, 5], [10, 6], [10, 7], [10, 8]]
